 vasp.6.4.3 19Mar24 (build Aug 29 2024 15:27:20) complex

 executed on             LinuxIFC date 2025.02.25  21:20:51

 INCAR:
   ENCUT = 500.00 eV
   PREC = Normal
   LREAL = FALSE
   ISMEAR = 0
   SIGMA = 0.1
   EDIFFG = -0.02
   EDIFF = 1E-5
   IBRION = 2
   ISIF = 2
   NSW = 0
   LWAVE = FALSE
   LCHARG = FALSE
   LORBIT = 11

 POTCAR:    PAW_PBE Pb 08Apr2002
 POTCAR:    PAW_PBE Cs_sv 08Apr2002
 POTCAR:    PAW_PBE Br 06Sep2000
 POTCAR:    PAW_PBE Pb 08Apr2002
   VRHFIN =Pb:

   TITEL  = PAW_PBE Pb 08Apr2002
   POMASS =  207.200; ZVAL   =    4.000    mass and valenz
   ENMAX  =   97.973; ENMIN  =   73.480 eV

 POTCAR:    PAW_PBE Cs_sv 08Apr2002
   VRHFIN =Cs: 5s5p6s

   TITEL  = PAW_PBE Cs_sv 08Apr2002
   POMASS =  132.900; ZVAL   =    9.000    mass and valenz
   ENMAX  =  220.318; ENMIN  =  165.238 eV

 POTCAR:    PAW_PBE Br 06Sep2000
   VRHFIN =Br: s2p5

   TITEL  = PAW_PBE Br 06Sep2000
   POMASS =   79.904; ZVAL   =    7.000    mass and valenz
   ENMAX  =  216.285; ENMIN  =  162.214 eV

  PAW_PBE Pb 08Apr2002                  :
  PAW_PBE Cs_sv 08Apr2002               :
  PAW_PBE Br 06Sep2000                  :

 POSCAR: cspbi3
  positions in direct lattice
  velocities in cartesian coordinates

 exchange-correlation table for PE
   RHO(1)=    0.500       N(1)  =     2000
   RHO(2)=  100.500       N(2)  =     4000

 ion  position               nearest neighbor table
   1  0.000  0.000  0.000-   3 3.00   4 3.00   5 3.00   3 3.00   5 3.00   4 3.00
   2  0.500  0.500  0.500-
   3  0.000  0.000  0.500-   1 3.00   1 3.00
   4  0.500  0.000  0.000-   1 3.00   1 3.00
   5  0.000  0.500  0.000-   1 3.00   1 3.00

  LATTYP: Found a simple cubic cell.
 ALAT       =     5.9942059089

  Lattice vectors:

 A1 = (   5.9942059089,   0.0000000000,   0.0000000000)
 A2 = (   0.0000000000,   5.9942059089,   0.0000000000)
 A3 = (   0.0000000000,   0.0000000000,   5.9942059089)

Analysis of symmetry for initial positions (statically):
 Subroutine PRICEL returns:
 Original cell was already a primitive cell.

 Routine SETGRP: Setting up the symmetry group for a
 simple cubic supercell.

 Subroutine GETGRP returns: Found 48 space group operations
 (whereof 48 operations were pure point group operations)
 out of a pool of 48 trial point group operations.

The static configuration has the point symmetry O_h .

Analysis of symmetry for dynamics (positions and initial velocities):
 Subroutine PRICEL returns:
 Original cell was already a primitive cell.

 Routine SETGRP: Setting up the symmetry group for a
 simple cubic supercell.

 Subroutine GETGRP returns: Found 48 space group operations
 (whereof 48 operations were pure point group operations)
 out of a pool of 48 trial point group operations.

The dynamic configuration has the point symmetry O_h .

 Subroutine INISYM returns: Found 48 space group operations
 (whereof 48 operations are pure point group operations),
 and found     1 'primitive' translations

                                     Primitive cell

  volume of cell :     215.3748

  direct lattice vectors                    reciprocal lattice vectors
     5.994205909  0.000000000  0.000000000     0.166827769  0.000000000  0.000000000
     0.000000000  5.994205909  0.000000000     0.000000000  0.166827769  0.000000000
     0.000000000  0.000000000  5.994205909     0.000000000  0.000000000  0.166827769

  length of vectors
     5.994205909  5.994205909  5.994205909     0.166827769  0.166827769  0.166827769

  position of ions in fractional coordinates (direct lattice)
     0.000000000  0.000000000  0.000000000
     0.500000000  0.500000000  0.500000000
     0.000000000  0.000000000  0.500000000
     0.500000000  0.000000000  0.000000000
     0.000000000  0.500000000  0.000000000

  ion indices of the primitive-cell ions
   primitive index   ion index
                 1           1
                 2           2
                 3           3
                 4           4
                 5           5

 KPOINTS: Automatic mesh

Automatic generation of k-mesh.
 Grid dimensions read from file:
 generate k-points for:    4    4    4

 Generating k-lattice:

  Cartesian coordinates                     Fractional coordinates (reciprocal lattice)
     0.041706942  0.000000000  0.000000000     0.250000000  0.000000000  0.000000000
     0.000000000  0.041706942  0.000000000     0.000000000  0.250000000  0.000000000
     0.000000000  0.000000000  0.041706942     0.000000000  0.000000000  0.250000000

  Length of vectors
     0.041706942  0.041706942  0.041706942

  Shift w.r.t. Gamma in fractional coordinates (k-lattice)
     0.000000000  0.000000000  0.000000000

 Subroutine IBZKPT returns following result:

 Found     10 irreducible k-points:

 Following reciprocal coordinates:
            Coordinates               Weight
  0.000000  0.000000  0.000000      1.000000
  0.250000  0.000000  0.000000      6.000000
  0.500000  0.000000  0.000000      3.000000
  0.250000  0.250000  0.000000     12.000000
  0.500000  0.250000  0.000000     12.000000
  0.500000  0.500000  0.000000      3.000000
  0.250000  0.250000  0.250000      8.000000
  0.500000  0.250000  0.250000     12.000000
  0.500000  0.500000  0.250000      6.000000
  0.500000  0.500000  0.500000      1.000000

 Following cartesian coordinates:
            Coordinates               Weight
  0.000000  0.000000  0.000000      1.000000
  0.041707  0.000000  0.000000      6.000000
  0.083414  0.000000  0.000000      3.000000
  0.041707  0.041707  0.000000     12.000000
  0.083414  0.041707  0.000000     12.000000
  0.083414  0.083414  0.000000      3.000000
  0.041707  0.041707  0.041707      8.000000
  0.083414  0.041707  0.041707     12.000000
  0.083414  0.083414  0.041707      6.000000
  0.083414  0.083414  0.083414      1.000000

 SYSTEM =  unknown system
 POSCAR =  cspbi3

 Startparameter for this run:
   NWRITE =      2    write-flag & timer
   PREC   = normal    normal or accurate (medium, high low for compatibility)
   ISTART =      0    job   : 0-new  1-cont  2-samecut
   ICHARG =      2    charge: 1-file 2-atom 10-const
   ISPIN  =      1    spin polarized calculation?
   LNONCOLLINEAR =      F non collinear calculations
   LSORBIT =      F    spin-orbit coupling
   INIWAV =      1    electr: 0-lowe 1-rand  2-diag
   LASPH  =      F    aspherical Exc in radial PAW
 Electronic Relaxation 1
   ENCUT  =  500.0 eV  36.75 Ry    6.06 a.u.  10.93 10.93 10.93*2*pi/ulx,y,z
   ENINI  =  500.0     initial cutoff
   ENAUG  =  503.9 eV  augmentation charge cutoff
   NELM   =     60;   NELMIN=  2; NELMDL= -5     # of ELM steps
   EDIFF  = 0.1E-04   stopping-criterion for ELM
   LREAL  =      F    real-space projection
   NLSPLINE    = F    spline interpolate recip. space projectors
   LCOMPAT=      F    compatible to vasp.4.4
   GGA_COMPAT  = T    GGA compatible to vasp.4.4-vasp.4.6
   LMAXPAW     = -100 max onsite density
   LMAXMIX     =    2 max onsite mixed and CHGCAR
   VOSKOWN=      0    Vosko Wilk Nusair interpolation
   ROPT   =    0.00000   0.00000   0.00000
 Ionic relaxation
   EDIFFG = -.2E-01   stopping-criterion for IOM
   NSW    =      0    number of steps for IOM
   NBLOCK =      1;   KBLOCK =      1    inner block; outer block
   IBRION =     -1    ionic relax: 0-MD 1-quasi-New 2-CG
   NFREE  =      1    steps in history (QN), initial steepest desc. (CG)
   ISIF   =      2    stress and relaxation
   IWAVPR =     10    prediction:  0-non 1-charg 2-wave 3-comb
   ISYM   =      2    0-nonsym 1-usesym 2-fastsym
   LCORR  =      T    Harris-Foulkes like correction to forces

   POTIM  = 0.5000    time-step for ionic-motion
   TEIN   =    0.0    initial temperature
   TEBEG  =    0.0;   TEEND  =   0.0 temperature during run
   SMASS  =  -3.00    Nose mass-parameter (am)
   estimated Nose-frequenzy (Omega)   =  0.10E-29 period in steps = 0.13E+47 mass=  -0.821E-27a.u.
   SCALEE = 1.0000    scale energy and forces
   NPACO  =    256;   APACO  = 10.0  distance and # of slots for P.C.
   PSTRESS=    0.0 pullay stress

  Mass of Ions in am
   POMASS = 207.20132.90 79.90
  Ionic Valenz
   ZVAL   =   4.00  9.00  7.00
  Atomic Wigner-Seitz radii
  virtual crystal weights
   VCA    =   1.00  1.00  1.00
   NELECT =      34.0000    total number of electrons
   NUPDOWN=      -1.0000    fix difference up-down

 DOS related values:
   EMIN   =  10.00;   EMAX   =-10.00  energy-range for DOS
   EFERMI =   0.00;   METHOD = LEGACY
   ISMEAR =     0;   SIGMA  =   0.10  broadening in eV -4-tet -1-fermi 0-gaus

 Electronic relaxation 2 (details)
   IALGO  =     38    algorithm
   LDIAG  =      T    sub-space diagonalisation (order eigenvalues)
   LSUBROT=      F    optimize rotation matrix (better conditioning)
   TURBO    =      0    0=normal 1=particle mesh
   IRESTART =      0    0=no restart 2=restart with 2 vectors
   NREBOOT  =      0    no. of reboots
   NMIN     =      0    reboot dimension
   EREF     =   0.00    reference energy to select bands
   IMIX   =      4    mixing-type and parameters
     AMIX     =   0.40;   BMIX     =  1.00
     AMIX_MAG =   1.60;   BMIX_MAG =  1.00
     AMIN     =   0.10
     WC   =   100.;   INIMIX=   1;  MIXPRE=   1;  MAXMIX= -45

 Intra band minimization:
   WEIMIN = 0.0000     energy-eigenvalue tresh-hold
   EBREAK =  0.11E-06  absolut break condition
   DEPER  =   0.30     relativ break condition

   TIME   =   0.40     timestep for ELM

  volume/ion in A,a.u.               =      43.07       290.68
  Fermi-wavevector in a.u.,A,eV,Ry     =   0.884782  1.671995 10.651167  0.782839
  Thomas-Fermi vector in A             =   2.005728

 Write flags
   LWAVE        =      F    write WAVECAR
   LDOWNSAMPLE  =      F    k-point downsampling of WAVECAR
   LCHARG       =      F    write CHGCAR
   LVTOT        =      F    write LOCPOT, total local potential
   LVHAR        =      F    write LOCPOT, Hartree potential only
   WRT_POTENTIAL= false  ! write potential to hdf5 file
   LELF         =      F    write electronic localiz. function (ELF)
   LORBIT       =     11    0 simple, 1 ext, 2 COOP (PROOUT), +10 PAW based schemes

 Dipole corrections
   LMONO      =      F    monopole corrections only (constant potential shift)
   LDIPOL     =      F    correct potential (dipole corrections)
   IDIPOL     =      0    1-x, 2-y, 3-z, 4-all directions
   EPSILON    =  1.0000000 bulk dielectric constant
   LVACPOTAV  =      F  vacuum potentials using an averaging scheme for the charge density
   VACPOTFLAT =  0.1000000 required flatness to determine vacuum potential
 Exchange correlation treatment:
   GGA     = PE    functional components
   XC_C    = 1    coefficients multiplying the functional components
   VOSKOWN =     0    Vosko Wilk Nusair interpolation
   LHFCALC =     F    Hartree Fock is set to
   LHFONE  =     F    Hartree Fock one center treatment
   AEXX    =    0.0000 exact exchange contribution

 Parameters of functionals:
   PE:
     No parameter

 Van der Waals corrections
   IVDW    =     0    specifies the selected vdW correction

 Linear response parameters
   LEPSILON=     F    determine dielectric tensor
   LRPA    =     F    only Hartree local field effects (RPA)
   LNABLA  =     F    use nabla operator in PAW spheres
   LVEL    =     F    velocity operator in full k-point grid
   CSHIFT  =0.1000    complex shift for real part using Kramers Kronig
   OMEGAMAX=  -1.0    maximum frequency
   DEG_THRESHOLD= 0.2000000E-02 threshold for treating states as degnerate
   RTIME   =   -0.100 relaxation time in fs
  (WPLASMAI=    0.000 imaginary part of plasma frequency in eV, 0.658/RTIME)
   DFIELD  = 0.0000000 0.0000000 0.0000000 field for delta impulse in time

  Optional k-point grid parameters
   LKPOINTS_OPT  =     F    use optional k-point grid
   KPOINTS_OPT_MODE=     1    mode for optional k-point grid

 Orbital magnetization related:
   ORBITALMAG=     F  switch on orbital magnetization
   LCHIMAG   =     F  perturbation theory with respect to B field
   DQ        =  0.001000  dq finite difference perturbation B field
   LLRAUG    =     F  two centre corrections for induced B field
   LBONE     =     F  B-component reconstruction in AE one-centre
   LVGVCALC  =     T  calculate vGv susceptibility
   LVGVAPPL  =     F  apply vGv susceptibility instead of pGv for G=0

 Random number generation:
   RANDOM_GENERATOR = DEFAULT
   PCG_SEED         = not used

 Static calculation
 charge density and potential will be updated during run
 non-spin polarized calculation
 Variant of blocked Davidson
 Davidson routine will perform the subspace rotation
 perform sub-space diagonalisation
    after iterative eigenvector-optimisation
 modified Broyden-mixing scheme, WC =      100.0
 initial mixing is a Kerker type mixing with AMIX =  0.4000 and BMIX =      1.0000
 Hartree-type preconditioning will be used
 using additional bands            5
 reciprocal scheme for non local part
 use partial core corrections
 calculate Harris-corrections to forces
   (improved forces if not selfconsistent)
 use gradient corrections
 use of overlap-Matrix (Vanderbilt PP)
 Gauss-broadening in eV      SIGMA  =   0.10

  energy-cutoff  :      500.00
  volume of cell :      215.37
      direct lattice vectors                 reciprocal lattice vectors
     5.994205909  0.000000000  0.000000000     0.166827769  0.000000000  0.000000000
     0.000000000  5.994205909  0.000000000     0.000000000  0.166827769  0.000000000
     0.000000000  0.000000000  5.994205909     0.000000000  0.000000000  0.166827769

[...]

 k-points in units of 2pi/SCALE and weight: Automatic mesh
   0.00000000  0.00000000  0.00000000       0.016
   0.04170694  0.00000000  0.00000000       0.094
   0.08341388  0.00000000  0.00000000       0.047
   0.04170694  0.04170694  0.00000000       0.188
   0.08341388  0.04170694  0.00000000       0.188
   0.08341388  0.08341388  0.00000000       0.047
   0.04170694  0.04170694  0.04170694       0.125
   0.08341388  0.04170694  0.04170694       0.188
   0.08341388  0.08341388  0.04170694       0.094
   0.08341388  0.08341388  0.08341388       0.016

 k-points in reciprocal lattice and weights: Automatic mesh
   0.00000000  0.00000000  0.00000000       0.016
   0.25000000  0.00000000  0.00000000       0.094
   0.50000000  0.00000000  0.00000000       0.047
   0.25000000  0.25000000  0.00000000       0.188
   0.50000000  0.25000000  0.00000000       0.188
   0.50000000  0.50000000  0.00000000       0.047
   0.25000000  0.25000000  0.25000000       0.125
   0.50000000  0.25000000  0.25000000       0.188
   0.50000000  0.50000000  0.25000000       0.094
   0.50000000  0.50000000  0.50000000       0.016

 position of ions in fractional coordinates (direct lattice)
   0.00000000  0.00000000  0.00000000
   0.50000000  0.50000000  0.50000000
   0.00000000  0.00000000  0.50000000
   0.50000000  0.00000000  0.00000000
   0.00000000  0.50000000  0.00000000

 position of ions in cartesian coordinates  (Angst):
   0.00000000  0.00000000  0.00000000
   2.99710295  2.99710295  2.99710295
   0.00000000  0.00000000  2.99710295
   2.99710295  0.00000000  0.00000000
   0.00000000  2.99710295  0.00000000

 k-point     1 :   0.0000 0.0000 0.0000  plane waves:    5449
 k-point     2 :   0.2500 0.0000 0.0000  plane waves:    5454
 k-point     3 :   0.5000 0.0000 0.0000  plane waves:    5478
 k-point     4 :   0.2500 0.2500 0.0000  plane waves:    5441
 k-point     5 :   0.5000 0.2500 0.0000  plane waves:    5460
 k-point     6 :   0.5000 0.5000 0.0000  plane waves:    5440
 k-point     7 :   0.2500 0.2500 0.2500  plane waves:    5479
 k-point     8 :   0.5000 0.2500 0.2500  plane waves:    5512
 k-point     9 :   0.5000 0.5000 0.2500  plane waves:    5476
 k-point    10 :   0.5000 0.5000 0.5000  plane waves:    5520

 maximum and minimum number of plane-waves per node :      5520     5440

 maximum number of plane-waves:      5520
 maximum index in each direction:
   IXMAX=   10   IYMAX=   10   IZMAX=   10
   IXMIN=  -11   IYMIN=  -11   IZMIN=  -11

 serial   3D FFT for wavefunctions
 parallel 3D FFT for charge:
    minimum data exchange during FFTs selected (reduces bandwidth)

 Broyden mixing: mesh for mixing (old mesh)
   NGX = 21   NGY = 21   NGZ = 21
  (NGX  = 72   NGY  = 72   NGZ  = 72)
  gives a total of   9261 points

 initial charge density was supplied:
 charge density of overlapping atoms calculated
 number of electron      34.0000000 magnetization
 keeping initial charge density in first step

 Maximum index for augmentation-charges        11877 (set IRDMAX)

 First call to EWALD:  gamma=   0.296
 Maximum number of real-space cells 3x 3x 3
 Maximum number of reciprocal cells 3x 3x 3

--------------------------------------- Ionic step        1  -------------------------------------------

--------------------------------------- Iteration      1(   1)  ---------------------------------------

 eigenvalue-minimisations  :   440
 total energy-change (2. order) : 0.2349761E+03  (-0.1246960E+04)
 number of electron      34.0000000 magnetization
 augmentation part       34.0000000 magnetization

 Free energy of the ion-electron system (eV)
  alpha Z        PSCENC =        66.00596425
  Ewald energy   TEWEN  =     -1390.45551855
  -Hartree energ DENC   =      -289.50322073
  -exchange      EXHF   =         0.00000000
  -V(xc)+E(xc)   XCENC  =       -89.47406786
  PAW double counting   =      1509.78755068    -1350.33373098
  entropy T*S    EENTRO =        -0.01724557
  eigenvalues    EBANDS =        20.95490470
  atomic energy  EATOM  =      1758.01141658
  Solvation  Ediel_sol  =         0.00000000
  free energy    TOTEN  =       234.97605252 eV

  energy without entropy =      234.99329809  energy(sigma->0) =      234.98467530

[...]

 eigenvalue-minimisations  :   616
 total energy-change (2. order) :-0.2266119E+03  (-0.2214640E+03)
 number of electron      34.0000000 magnetization
 augmentation part       34.0000000 magnetization

[...]

 Broyden mixing:
  rms(total) = 0.88154E+00    rms(broyden)= 0.88154E+00
  rms(prec ) = 0.11205E+01
  weight for this iteration     100.00

[...]

 eigenvalues of (default mixing * dielectric matrix)
  average eigenvalue GAMMA=   2.1610
  2.1610

[...]

 eigenvalue-minimisations  :   530
 total energy-change (2. order) : 0.6116096E-01  (-0.5818914E-01)
 number of electron      33.9999949 magnetization
 augmentation part       -7.4705113 magnetization

[...]

 Broyden mixing:
  rms(total) = 0.38487E-02    rms(broyden)= 0.38487E-02
  rms(prec ) = 0.41963E-02
  weight for this iteration     100.00

 eigenvalues of (default mixing * dielectric matrix)
  average eigenvalue GAMMA=   1.7033
  2.8357  2.4629  1.5455  1.5455  0.9150  0.9150

[...]

--------------------------------------- Iteration      1(  12)  ---------------------------------------

 eigenvalue-minimisations  :   430
 total energy-change (2. order) :-0.4410177E-05  (-0.2200339E-05)
 number of electron      33.9999949 magnetization
 augmentation part       -7.4928398 magnetization

 Free energy of the ion-electron system (eV)
  alpha Z        PSCENC =        66.00596425
  Ewald energy   TEWEN  =     -1390.45551855
  -Hartree energ DENC   =      -303.51196902
  -exchange      EXHF   =         0.00000000
  -V(xc)+E(xc)   XCENC  =       -87.92587147
  PAW double counting   =      1795.79152333    -1636.72834475
  entropy T*S    EENTRO =        -0.00000000
  eigenvalues    EBANDS =      -217.10321452
  atomic energy  EATOM  =      1758.01141658
  Solvation  Ediel_sol  =         0.00000000
  free energy    TOTEN  =       -15.91601414 eV

  energy without entropy =      -15.91601414  energy(sigma->0) =      -15.91601414

 average (electrostatic) potential at core
  the test charge radii are     1.4908  1.1312  1.0178
  (the norm of the test charge is              1.0000)
       1 -47.1791       2 -50.6862       3 -64.4837       4 -64.4837       5 -64.4837

 E-fermi :   0.7898     XC(G=0):  -7.3165     alpha+bet : -6.2509

 val. band max:        0.3115806761   @ k =   0.5000   0.5000   0.5000
 cond. band min:       2.0762069607   @ k =   0.5000   0.5000   0.5000
 fundamental gap:      1.7646262847
 Fermi energy:         0.7898452927

 k-point     1 :       0.0000    0.0000    0.0000
  band No.  band energies     occupation
      1     -20.8979      2.00000
      2     -13.9746      2.00000
      3     -13.5012      2.00000
      4     -13.5012      2.00000
      5      -7.6779      2.00000
      6      -7.6779      2.00000
      7      -7.6779      2.00000
      8      -6.5429      2.00000
      9      -3.4705      2.00000
     10      -3.4705      2.00000
     11      -3.4705      2.00000
     12      -1.4218      2.00000
     13      -1.4218      2.00000
     14      -1.4218      2.00000
     15      -1.3332      2.00000
     16      -1.3332      2.00000
     17      -1.3332      2.00000
     18       3.6086      0.00000
     19       4.8060      0.00000
     20       4.8060      0.00000
     21       5.5346      0.00000
     22       5.5346      0.00000

[...]

 k-point    10 :       0.5000    0.5000    0.5000
  band No.  band energies     occupation
      1     -20.8961      2.00000
      2     -13.6454      2.00000
      3     -13.6454      2.00000
      4     -13.6454      2.00000
      5      -8.2099      2.00000
      6      -7.7038      2.00000
      7      -7.7038      2.00000
      8      -7.7038      2.00000
      9      -2.0864      2.00000
     10      -2.0864      2.00000
     11      -2.0864      2.00000
     12      -1.6189      2.00000
     13      -1.6189      2.00000
     14      -0.9889      2.00000
     15      -0.9889      2.00000
     16      -0.9889      2.00000
     17       0.3116      2.00000
     18       2.0762      0.00000
     19       2.0762      0.00000
     20       2.0762      0.00000
     21       5.1032      0.00000
     22       5.7854      0.00000

 soft charge-density along one line, spin component           1
         0         1         2         3         4         5         6         7         8         9
 total charge-density along one line

------------------------ aborting loop because EDIFF is reached ----------------------------------------

 total charge

# of ion       s       p       d       tot
    1        1.822   0.832   0.123   2.778
    2        1.832   4.711   0.009   6.552
    3        1.610   3.251   0.006   4.867
    4        1.610   3.251   0.006   4.867
    5        1.610   3.251   0.006   4.867
tot          8.483  15.298   0.150  23.930

  FORCE on cell =-STRESS in cart. coord.  units (eV):
  Direction    XX          YY          ZZ          XY          YZ          ZX
  Alpha Z    66.00596    66.00596    66.00596
  Ewald    -463.48550  -463.48550  -463.48550    -0.00000     0.00000     0.00000
  Hartree   101.17658   101.17658   101.17658    -0.00000    -0.00000    -0.00000
  E(xc)    -130.20210  -130.20210  -130.20210     0.00000    -0.00000    -0.00000
  Local    -173.73742  -173.73742  -173.73742    -0.00000    -0.00000    -0.00000
  n-local   200.24355   200.84181   201.04255    -0.04798    -0.03434    -0.01712
  augment   -45.54882   -45.54882   -45.54882     0.00000     0.00000    -0.00000
  Kinetic   449.28007   445.15286   440.95999    -0.65113    -0.66302    -0.26182
  Fock        0.00000     0.00000     0.00000     0.00000     0.00000     0.00000
  Total       0.04898     0.04898     0.04898    -0.00000     0.00000    -0.00000
  in kB       0.36440     0.36440     0.36440    -0.00000     0.00000    -0.00000

 VOLUME and BASIS-vectors are now :
  energy-cutoff  :      500.00
  volume of cell :      215.37
      direct lattice vectors                 reciprocal lattice vectors
     5.994205909  0.000000000  0.000000000     0.166827769  0.000000000  0.000000000
     0.000000000  5.994205909  0.000000000     0.000000000  0.166827769  0.000000000
     0.000000000  0.000000000  5.994205909     0.000000000  0.000000000  0.166827769

  length of vectors
     5.994205909  5.994205909  5.994205909     0.166827769  0.166827769  0.166827769

 FORCES acting on ions
    electron-ion (+dipol)            ewald-force                    non-local-force                 convergence-correction
   -.804E-14 -.276E-14 0.850E-16   0.528E-15 0.512E-15 -.414E-15   0.151E-23 0.136E-23 -.189E-23   0.620E-15 0.287E-15 0.630E-14
   0.862E-14 0.724E-12 0.174E-12   -.669E-15 -.881E-16 0.245E-14   0.800E-24 -.867E-24 -.993E-24   -.222E-14 -.111E-13 -.292E-13
   0.230E-14 0.416E-14 0.303E-13   0.192E-14 0.191E-14 -.611E-15   0.369E-23 -.320E-23 0.846E-24   -.773E-14 -.316E-14 -.189E-13
   0.241E-13 0.158E-14 -.110E-11   -.151E-15 0.498E-15 -.580E-15   0.126E-23 -.276E-23 -.187E-23   -.432E-14 -.629E-14 0.896E-14
   0.186E-14 0.261E-13 0.100E-13   -.878E-15 -.285E-14 -.617E-15   -.157E-23 0.834E-24 -.238E-23   -.821E-14 -.282E-14 0.499E-14
   0.288E-13 0.753E-12 -.889E-12   0.754E-15 -.149E-16 0.230E-15   0.568E-23 -.463E-23 -.628E-23   -.219E-13 -.231E-13 -.278E-13

 POSITION                                       TOTAL-FORCE (eV/Angst)
      0.00000      0.00000      0.00000         0.000000      0.000000      0.000000
      2.99710      2.99710      2.99710        -0.000000     -0.000000     -0.000000
      0.00000      0.00000      2.99710         0.000000      0.000000      0.000000
      2.99710      0.00000      0.00000         0.000000      0.000000      0.000000
      0.00000      2.99710      0.00000         0.000000      0.000000      0.000000
    total drift:                                0.000000      0.000000     -0.000000

  FREE ENERGIE OF THE ION-ELECTRON SYSTEM (eV)
  free  energy   TOTEN  =       -15.91601414 eV

  energy  without entropy=      -15.91601414  energy(sigma->0) =      -15.91601414

 total charge

# of ion       s       p       d       tot
    1        1.822   0.832   0.123   2.778
    2        1.832   4.711   0.009   6.552
    3        1.610   3.251   0.006   4.867
    4        1.610   3.251   0.006   4.867
    5        1.610   3.251   0.006   4.867
tot          8.483  15.298   0.150  23.930